c File: flat50_3_0.col
c
c SOURCE: Joseph Culberson (joe@cs.ualberta.ca)
c DESCRIPTION: Quasi-random coloring problem
c              generated with flatness = 0
c                             probability = 0.139
c                             known coloring = 3
c                             random seed = 1304
c              Creation Date:  Tue Jun  9 12:06:05 1998
c Maximum degree = 7 Minimum degree = 2
c p edge 50 115
c cnf created by edge2cnf
p cnf 150 545
-1 -2 0
-1 -3 0
-2 -3 0
1 2 3 0
-4 -5 0
-4 -6 0
-5 -6 0
4 5 6 0
-7 -8 0
-7 -9 0
-8 -9 0
7 8 9 0
-10 -11 0
-10 -12 0
-11 -12 0
10 11 12 0
-13 -14 0
-13 -15 0
-14 -15 0
13 14 15 0
-16 -17 0
-16 -18 0
-17 -18 0
16 17 18 0
-19 -20 0
-19 -21 0
-20 -21 0
19 20 21 0
-22 -23 0
-22 -24 0
-23 -24 0
22 23 24 0
-25 -26 0
-25 -27 0
-26 -27 0
25 26 27 0
-28 -29 0
-28 -30 0
-29 -30 0
28 29 30 0
-31 -32 0
-31 -33 0
-32 -33 0
31 32 33 0
-34 -35 0
-34 -36 0
-35 -36 0
34 35 36 0
-37 -38 0
-37 -39 0
-38 -39 0
37 38 39 0
-40 -41 0
-40 -42 0
-41 -42 0
40 41 42 0
-43 -44 0
-43 -45 0
-44 -45 0
43 44 45 0
-46 -47 0
-46 -48 0
-47 -48 0
46 47 48 0
-49 -50 0
-49 -51 0
-50 -51 0
49 50 51 0
-52 -53 0
-52 -54 0
-53 -54 0
52 53 54 0
-55 -56 0
-55 -57 0
-56 -57 0
55 56 57 0
-58 -59 0
-58 -60 0
-59 -60 0
58 59 60 0
-61 -62 0
-61 -63 0
-62 -63 0
61 62 63 0
-64 -65 0
-64 -66 0
-65 -66 0
64 65 66 0
-67 -68 0
-67 -69 0
-68 -69 0
67 68 69 0
-70 -71 0
-70 -72 0
-71 -72 0
70 71 72 0
-73 -74 0
-73 -75 0
-74 -75 0
73 74 75 0
-76 -77 0
-76 -78 0
-77 -78 0
76 77 78 0
-79 -80 0
-79 -81 0
-80 -81 0
79 80 81 0
-82 -83 0
-82 -84 0
-83 -84 0
82 83 84 0
-85 -86 0
-85 -87 0
-86 -87 0
85 86 87 0
-88 -89 0
-88 -90 0
-89 -90 0
88 89 90 0
-91 -92 0
-91 -93 0
-92 -93 0
91 92 93 0
-94 -95 0
-94 -96 0
-95 -96 0
94 95 96 0
-97 -98 0
-97 -99 0
-98 -99 0
97 98 99 0
-100 -101 0
-100 -102 0
-101 -102 0
100 101 102 0
-103 -104 0
-103 -105 0
-104 -105 0
103 104 105 0
-106 -107 0
-106 -108 0
-107 -108 0
106 107 108 0
-109 -110 0
-109 -111 0
-110 -111 0
109 110 111 0
-112 -113 0
-112 -114 0
-113 -114 0
112 113 114 0
-115 -116 0
-115 -117 0
-116 -117 0
115 116 117 0
-118 -119 0
-118 -120 0
-119 -120 0
118 119 120 0
-121 -122 0
-121 -123 0
-122 -123 0
121 122 123 0
-124 -125 0
-124 -126 0
-125 -126 0
124 125 126 0
-127 -128 0
-127 -129 0
-128 -129 0
127 128 129 0
-130 -131 0
-130 -132 0
-131 -132 0
130 131 132 0
-133 -134 0
-133 -135 0
-134 -135 0
133 134 135 0
-136 -137 0
-136 -138 0
-137 -138 0
136 137 138 0
-139 -140 0
-139 -141 0
-140 -141 0
139 140 141 0
-142 -143 0
-142 -144 0
-143 -144 0
142 143 144 0
-145 -146 0
-145 -147 0
-146 -147 0
145 146 147 0
-148 -149 0
-148 -150 0
-149 -150 0
148 149 150 0
-73 -1 0
-74 -2 0
-75 -3 0
-79 -1 0
-80 -2 0
-81 -3 0
-85 -1 0
-86 -2 0
-87 -3 0
-124 -1 0
-125 -2 0
-126 -3 0
-100 -4 0
-101 -5 0
-102 -6 0
-115 -4 0
-116 -5 0
-117 -6 0
-124 -4 0
-125 -5 0
-126 -6 0
-133 -4 0
-134 -5 0
-135 -6 0
-139 -4 0
-140 -5 0
-141 -6 0
-64 -7 0
-65 -8 0
-66 -9 0
-85 -7 0
-86 -8 0
-87 -9 0
-118 -7 0
-119 -8 0
-120 -9 0
-130 -7 0
-131 -8 0
-132 -9 0
-109 -10 0
-110 -11 0
-111 -12 0
-139 -10 0
-140 -11 0
-141 -12 0
-91 -13 0
-92 -14 0
-93 -15 0
-121 -13 0
-122 -14 0
-123 -15 0
-124 -13 0
-125 -14 0
-126 -15 0
-55 -16 0
-56 -17 0
-57 -18 0
-79 -16 0
-80 -17 0
-81 -18 0
-91 -16 0
-92 -17 0
-93 -18 0
-94 -16 0
-95 -17 0
-96 -18 0
-121 -16 0
-122 -17 0
-123 -18 0
-127 -16 0
-128 -17 0
-129 -18 0
-136 -16 0
-137 -17 0
-138 -18 0
-82 -19 0
-83 -20 0
-84 -21 0
-88 -19 0
-89 -20 0
-90 -21 0
-97 -19 0
-98 -20 0
-99 -21 0
-100 -19 0
-101 -20 0
-102 -21 0
-142 -19 0
-143 -20 0
-144 -21 0
-88 -22 0
-89 -23 0
-90 -24 0
-112 -22 0
-113 -23 0
-114 -24 0
-148 -22 0
-149 -23 0
-150 -24 0
-52 -25 0
-53 -26 0
-54 -27 0
-76 -25 0
-77 -26 0
-78 -27 0
-106 -25 0
-107 -26 0
-108 -27 0
-112 -25 0
-113 -26 0
-114 -27 0
-94 -28 0
-95 -29 0
-96 -30 0
-103 -28 0
-104 -29 0
-105 -30 0
-118 -28 0
-119 -29 0
-120 -30 0
-127 -28 0
-128 -29 0
-129 -30 0
-133 -28 0
-134 -29 0
-135 -30 0
-61 -31 0
-62 -32 0
-63 -33 0
-85 -31 0
-86 -32 0
-87 -33 0
-91 -31 0
-92 -32 0
-93 -33 0
-109 -31 0
-110 -32 0
-111 -33 0
-136 -31 0
-137 -32 0
-138 -33 0
-88 -34 0
-89 -35 0
-90 -36 0
-97 -34 0
-98 -35 0
-99 -36 0
-115 -34 0
-116 -35 0
-117 -36 0
-121 -34 0
-122 -35 0
-123 -36 0
-148 -34 0
-149 -35 0
-150 -36 0
-52 -37 0
-53 -38 0
-54 -39 0
-70 -37 0
-71 -38 0
-72 -39 0
-85 -37 0
-86 -38 0
-87 -39 0
-100 -37 0
-101 -38 0
-102 -39 0
-103 -37 0
-104 -38 0
-105 -39 0
-112 -37 0
-113 -38 0
-114 -39 0
-55 -40 0
-56 -41 0
-57 -42 0
-64 -40 0
-65 -41 0
-66 -42 0
-67 -40 0
-68 -41 0
-69 -42 0
-76 -40 0
-77 -41 0
-78 -42 0
-106 -40 0
-107 -41 0
-108 -42 0
-118 -40 0
-119 -41 0
-120 -42 0
-58 -43 0
-59 -44 0
-60 -45 0
-67 -43 0
-68 -44 0
-69 -45 0
-79 -43 0
-80 -44 0
-81 -45 0
-91 -43 0
-92 -44 0
-93 -45 0
-112 -43 0
-113 -44 0
-114 -45 0
-64 -46 0
-65 -47 0
-66 -48 0
-76 -46 0
-77 -47 0
-78 -48 0
-115 -46 0
-116 -47 0
-117 -48 0
-79 -49 0
-80 -50 0
-81 -51 0
-97 -49 0
-98 -50 0
-99 -51 0
-109 -49 0
-110 -50 0
-111 -51 0
-139 -49 0
-140 -50 0
-141 -51 0
-145 -49 0
-146 -50 0
-147 -51 0
-109 -52 0
-110 -53 0
-111 -54 0
-121 -55 0
-122 -56 0
-123 -57 0
-130 -55 0
-131 -56 0
-132 -57 0
-115 -58 0
-116 -59 0
-117 -60 0
-118 -58 0
-119 -59 0
-120 -60 0
-139 -58 0
-140 -59 0
-141 -60 0
-145 -58 0
-146 -59 0
-147 -60 0
-109 -61 0
-110 -62 0
-111 -63 0
-112 -61 0
-113 -62 0
-114 -63 0
-133 -61 0
-134 -62 0
-135 -63 0
-121 -64 0
-122 -65 0
-123 -66 0
-130 -64 0
-131 -65 0
-132 -66 0
-109 -67 0
-110 -68 0
-111 -69 0
-112 -67 0
-113 -68 0
-114 -69 0
-127 -70 0
-128 -71 0
-129 -72 0
-106 -73 0
-107 -74 0
-108 -75 0
-112 -73 0
-113 -74 0
-114 -75 0
-118 -73 0
-119 -74 0
-120 -75 0
-124 -73 0
-125 -74 0
-126 -75 0
-136 -79 0
-137 -80 0
-138 -81 0
-142 -79 0
-143 -80 0
-144 -81 0
-145 -82 0
-146 -83 0
-147 -84 0
-103 -85 0
-104 -86 0
-105 -87 0
-118 -85 0
-119 -86 0
-120 -87 0
-130 -85 0
-131 -86 0
-132 -87 0
-133 -88 0
-134 -89 0
-135 -90 0
-121 -91 0
-122 -92 0
-123 -93 0
-124 -91 0
-125 -92 0
-126 -93 0
-115 -94 0
-116 -95 0
-117 -96 0
-118 -94 0
-119 -95 0
-120 -96 0
-130 -94 0
-131 -95 0
-132 -96 0
-133 -94 0
-134 -95 0
-135 -96 0
-115 -97 0
-116 -98 0
-117 -99 0
-121 -97 0
-122 -98 0
-123 -99 0
-124 -97 0
-125 -98 0
-126 -99 0
-139 -97 0
-140 -98 0
-141 -99 0
-103 -100 0
-104 -101 0
-105 -102 0
-124 -100 0
-125 -101 0
-126 -102 0
